language ESSENCE' 1.0
letting shiftRequirements = [[18, 7, 14, 13], [7, 7, 10, 28], [8, 7, 10, 27], [3, 8, 10, 31], [12, 1, 14, 25], [34, 1, 9, 8], [34, 1, 9, 8]]
letting numberOfWeeks = 52
letting s_min = 2
letting s_max = 4
